WARNING: for repeatability, setting FPU to use double precision
============================[ Problem Statistics ]=============================
|                                                                             |
|  Number of variables:            50                                         |
|  Number of clauses:             218                                         |
|  Parse time:                   0.00 s                                       |
|                                                                             |
============================[ Search Statistics ]==============================
| Conflicts |          ORIGINAL         |          LEARNT          | Progress |
|           |    Vars  Clauses Literals |    Limit  Clauses Lit/Cl |          |
===============================================================================
===============================================================================
restarts              : 1
conflicts             : 58             (327684 /sec)
decisions             : 66             (0.00 % random) (372881 /sec)
propagations          : 810            (4576271 /sec)
conflict literals     : 221            (14.34 % deleted)
Memory used           : 20.00 MB
CPU time              : 0.000177 s

UNSATISFIABLE
